NAME : n150w140.005.926.tour
COMMENT : Length = 926
COMMENT : Found by LKH [Keld Helsgaun] Tue Nov  7 19:48:08 2017
TYPE : TOUR
DIMENSION : 151
TOUR_SECTION
1
71
109
84
56
12
26
78
13
99
106
112
98
108
6
127
22
148
149
144
101
7
102
29
150
118
41
122
28
5
60
2
88
143
25
113
103
59
23
86
142
65
16
133
3
120
35
53
111
20
45
21
135
128
34
11
47
95
139
49
117
90
74
4
123
48
96
76
138
93
124
14
50
115
129
79
42
126
15
8
9
110
73
121
81
70
91
52
27
116
87
107
37
83
38
85
18
147
36
40
146
33
54
72
141
32
30
67
10
136
125
62
55
131
75
44
100
97
114
82
31
105
61
63
19
66
43
80
57
92
58
24
89
104
145
132
39
17
137
69
77
94
130
68
134
151
46
51
64
140
119
-1
EOF
